sat
(:added-eqs                       35131
 :arith-eq-adapter                657
 :arith-bound-propagations-lp     448
 :arith-branch                    15
 :arith-conflicts                 2465
 :arith-cube-calls                4
 :arith-diseq                     5653
 :arith-fixed-eqs                 1781
 :arith-gcd-calls                 290
 :arith-gomory-cuts               3
 :arith-grobner-calls             326
 :arith-grobner-conflicts         259
 :arith-hnf-calls                 2
 :arith-horner-calls              78
 :arith-horner-conflicts          2
 :arith-horner-cross-nested-forms 32548
 :arith-lower                     15190
 :arith-make-feasible             16669
 :arith-max-columns               1772
 :arith-max-rows                  778
 :arith-nla-add-bounds            153
 :arith-nla-lemmas                1318
 :arith-nla-propagate-bounds      930
 :arith-nla-propagate-eq          14180
 :arith-nra-calls                 14
 :arith-offset-eqs                2798
 :arith-patches                   290
 :arith-patches-success           270
 :arith-upper                     39274
 :binary-propagations             70000
 :cnf-encoding-aux-vars           28
 :conflicts                       409
 :decisions                       117128
 :del-clause                      1377
 :elim-unconstrained              23
 :final-checks                    728
 :max-memory                      101.73
 :memory                          57.81
 :minimized-lits                  222
 :mk-bool-var                     6173
 :mk-clause                       2480
 :mk-clause-binary                8658
 :nlsat-conflicts                 1791
 :nlsat-decisions                 478
 :nlsat-propagations              126966
 :nlsat-restarts                  5
 :nlsat-stages                    97986
 :num-allocs                      5455543530.00
 :num-checks                      1
 :propagations                    96071
 :restarts                        3
 :rlimit-count                    4114390
 :sat-mk-clause-2ary              133810
 :sat-mk-clause-nary              198730
 :sat-mk-var                      95598
 :solve-eqs-elim-vars             147
 :solve-eqs-steps                 2446
 :time                            2.40
 :total-time                      2.41)
